
  17    4
  10   10   10   10

   0   0   0   0   0   1 2 
   9  10  10  10  10   3 16 8 3 
   8  10  10  10  10   4 7 6 5 4 
   3  10  10  10  10   4 15 11 10 9 
   2  10  10  10  10   3 15 10 9 
  10  10  10  10  10   4 15 14 13 12 
  10  10  10  10  10   3 15 14 13 
  10  10  10  10  10   3 14 13 12 
  10  10  10  10  10   2 14 13 
   5  10  10  10  10   1 12 
   7  10  10  10  10   1 12 
   8  10  10  10  10   1 17
   5  10  10  10  10   1 17
   9  10  10  10  10   1 17
   3  10  10  10  10   1 17
   1  10  10  10  10   1 17
   0   0   0   0   0   0 
